
  32    4
  10   10   10   10

   0   0   0   0   0   2 2 4 
   1  10  10  10  10   1 3 
   2  10  10  10  10   1 5 
   1  10  10  10  10   1 5 
   3  10  10  10  10   2 7 6 
   7  10  10  10  10   5 13 12 11 9 8 
   6  10  10  10  10   4 13 12 9 8 
   2  10  10  10  10   1 10 
   5  10  10  10  10   1 10 
   3  10  10  10  10   3 16 15 14 
   7  10  10  10  10   3 16 15 14 
   9  10  10  10  10   2 15 14 
   4  10  10  10  10   2 15 14 
   5  10  10  10  10   4 20 19 18 17 
   1  10  10  10  10   4 20 19 18 17 
   1  10  10  10  10   4 20 19 18 17 
   5  10  10  10  10   2 22 21 
   6  10  10  10  10   2 22 21 
   3  10  10  10  10   2 22 21 
   3  10  10  10  10   2 22 21 
   4  10  10  10  10   2 24 23 
   5  10  10  10  10   1 23 
   2  10  10  10  10   1 25 
   8  10  10  10  10   1 25 
   3  10  10  10  10   1 26 
  10  10  10  10  10   1 27 
  10  10  10  10  10   2 29 28 
   7  10  10  10  10   2 31 30 
   8  10  10  10  10   2 31 30 
  10  10  10  10  10   1 32
   2  10  10  10  10   1 32
   0   0   0   0   0   0 
